NAME : eilB76.80.919.tour
COMMENT : Length = 919
COMMENT : Found by LKH [Keld Helsgaun] Mon Dec 10 23:16:05 2018
TYPE : TOUR
DIMENSION : 87
TOUR_SECTION
1
69
75
22
48
49
30
46
87
52
4
45
33
10
80
35
53
28
5
77
8
54
60
15
36
85
17
24
57
50
25
19
56
26
51
41
82
7
34
2
74
3
76
84
23
65
43
42
44
64
81
47
9
20
55
14
58
16
78
39
12
67
66
11
83
63
29
62
70
37
38
72
61
71
21
6
31
86
59
73
32
40
13
18
79
27
68
-1
EOF
